p wcnf 120 1600
3 -118 -120 0
8 -117 120 0
6 -116 -118 0
3 -116 -117 0
3 -115 118 0
6 -113 -120 0
8 -113 -117 0
10 -112 -113 0
7 -112 113 0
3 -110 -120 0
3 -109 117 0
5 -108 112 0
3 -107 -108 0
2 -107 108 0
7 -107 120 0
9 -106 -113 0
9 -106 108 0
8 -106 118 0
6 -105 109 0
3 -104 114 0
4 -103 -110 0
2 -102 -113 0
9 -101 -106 0
5 -101 103 0
7 -101 112 0
3 -101 113 0
9 -101 117 0
6 -100 114 0
2 -99 -119 0
8 -99 110 0
6 -98 -109 0
4 -98 114 0
5 -97 -109 0
2 -97 -98 0
5 -96 -120 0
7 -96 107 0
7 -95 -105 0
3 -95 -103 0
7 -95 118 0
4 -95 119 0
5 -94 95 0
8 -94 118 0
8 -93 -112 0
7 -93 -111 0
10 -93 -110 0
5 -93 -109 0
6 -92 -112 0
9 -92 -102 0
3 -92 102 0
2 -91 -108 0
2 -91 -100 0
5 -91 -97 0
3 -91 107 0
9 -90 -93 0
9 -90 -92 0
9 -89 -101 0
2 -89 -90 0
7 -89 117 0
4 -89 119 0
3 -88 99 0
5 -88 102 0
10 -88 117 0
6 -87 -118 0
10 -87 105 0
2 -86 108 0
10 -85 -114 0
7 -85 -97 0
8 -85 -89 0
3 -85 89 0
3 -85 99 0
2 -85 102 0
8 -85 116 0
2 -84 -93 0
9 -84 -87 0
5 -84 105 0
2 -84 109 0
4 -84 115 0
1 -84 120 0
9 -83 -113 0
5 -83 -100 0
2 -83 -92 0
1 -83 -88 0
10 -83 116 0
4 -82 -114 0
9 -82 -108 0
8 -82 -95 0
3 -82 95 0
2 -82 117 0
6 -82 120 0
6 -81 -101 0
4 -81 84 0
10 -81 108 0
6 -81 115 0
8 -80 -114 0
10 -80 90 0
6 -80 96 0
8 -80 100 0
6 -79 -118 0
5 -79 -114 0
2 -79 -86 0
9 -79 89 0
6 -79 94 0
8 -79 117 0
10 -79 118 0
5 -78 -111 0
4 -78 -103 0
1 -78 -101 0
7 -78 87 0
4 -78 96 0
9 -78 99 0
3 -78 108 0
5 -78 111 0
9 -77 -113 0
3 -77 -109 0
9 -77 -101 0
9 -77 -96 0
1 -77 86 0
2 -77 97 0
10 -77 111 0
6 -76 -85 0
7 -76 118 0
3 -75 -112 0
6 -75 -83 0
3 -75 -81 0
2 -75 82 0
5 -75 109 0
8 -74 -113 0
9 -74 -103 0
2 -74 -83 0
3 -74 -81 0
10 -74 77 0
9 -74 94 0
7 -73 -102 0
8 -73 -81 0
9 -73 83 0
2 -72 -114 0
2 -72 -111 0
9 -72 -103 0
8 -72 73 0
5 -72 92 0
9 -72 100 0
1 -72 108 0
9 -72 118 0
8 -71 -104 0
3 -71 -98 0
8 -71 87 0
7 -71 98 0
3 -71 115 0
9 -70 -116 0
6 -70 -114 0
8 -70 -99 0
6 -70 -71 0
9 -70 89 0
4 -70 90 0
7 -70 101 0
9 -70 104 0
8 -69 -112 0
6 -69 -110 0
8 -69 -102 0
9 -69 -95 0
8 -69 -83 0
8 -69 85 0
8 -69 116 0
5 -68 -120 0
6 -68 -73 0
7 -68 97 0
6 -67 -117 0
7 -67 -100 0
6 -67 -94 0
4 -67 -91 0
2 -67 -77 0
5 -67 93 0
5 -66 -113 0
1 -66 -76 0
3 -66 91 0
7 -65 -102 0
9 -65 77 0
8 -65 88 0
9 -65 106 0
7 -65 112 0
5 -65 118 0
7 -64 -113 0
3 -64 -74 0
4 -64 71 0
9 -64 73 0
9 -64 74 0
3 -64 77 0
7 -64 89 0
5 -64 117 0
1 -63 -110 0
6 -63 -109 0
3 -63 -100 0
8 -63 -78 0
4 -63 76 0
7 -62 -111 0
5 -62 -101 0
10 -62 -65 0
2 -62 -63 0
2 -62 88 0
6 -61 -120 0
6 -61 -96 0
3 -61 -92 0
9 -61 -75 0
9 -61 75 0
4 -61 87 0
2 -61 93 0
6 -61 108 0
2 -60 -102 0
9 -60 -101 0
5 -60 61 0
8 -60 69 0
4 -60 82 0
2 -60 98 0
1 -59 -120 0
7 -59 -118 0
1 -59 -116 0
10 -59 -95 0
9 -59 -72 0
8 -59 96 0
5 -59 107 0
9 -58 -116 0
4 -58 -95 0
6 -57 -120 0
8 -57 -101 0
7 -57 -99 0
3 -57 -89 0
2 -57 -82 0
6 -57 -75 0
4 -57 -66 0
4 -57 73 0
2 -57 77 0
9 -57 114 0
6 -56 -92 0
2 -56 -84 0
8 -56 -83 0
8 -56 -76 0
2 -56 -67 0
4 -56 -62 0
9 -56 83 0
2 -56 92 0
9 -56 104 0
8 -55 -106 0
5 -55 63 0
10 -54 -117 0
8 -54 -57 0
2 -54 63 0
1 -54 73 0
8 -54 96 0
10 -54 102 0
8 -54 114 0
2 -53 -107 0
9 -53 -94 0
2 -53 -91 0
8 -53 -63 0
7 -53 69 0
7 -53 98 0
9 -53 109 0
8 -53 119 0
4 -52 -104 0
3 -52 -102 0
2 -52 -101 0
5 -52 -90 0
2 -52 -70 0
6 -52 -69 0
5 -52 90 0
10 -52 95 0
5 -51 -110 0
7 -51 -109 0
4 -51 -105 0
4 -51 -96 0
8 -51 -60 0
3 -51 54 0
2 -51 58 0
3 -51 119 0
2 -50 -104 0
9 -50 -102 0
4 -50 66 0
3 -50 74 0
7 -50 81 0
4 -50 98 0
10 -49 -92 0
8 -49 -56 0
3 -49 -50 0
1 -49 86 0
5 -49 109 0
8 -49 117 0
8 -48 -105 0
5 -48 -71 0
6 -48 -69 0
1 -48 -54 0
7 -48 49 0
7 -48 54 0
5 -48 56 0
8 -48 59 0
3 -48 80 0
9 -48 99 0
8 -47 -85 0
7 -47 -78 0
6 -47 -57 0
2 -47 49 0
1 -47 65 0
4 -47 68 0
4 -47 74 0
2 -47 75 0
6 -47 86 0
5 -47 96 0
10 -47 97 0
8 -47 105 0
7 -47 114 0
6 -46 -119 0
2 -46 -110 0
6 -46 -84 0
4 -46 50 0
4 -46 60 0
7 -46 62 0
8 -46 83 0
2 -46 87 0
4 -45 -62 0
3 -45 67 0
7 -45 69 0
4 -45 78 0
9 -45 111 0
4 -44 -111 0
8 -44 -99 0
7 -44 -70 0
6 -44 -59 0
8 -44 -57 0
6 -44 -48 0
3 -44 50 0
4 -44 111 0
7 -43 -117 0
3 -43 -116 0
7 -43 -87 0
10 -43 -78 0
4 -43 -52 0
2 -43 67 0
5 -43 68 0
4 -42 -71 0
10 -42 -63 0
2 -42 -45 0
9 -42 49 0
2 -42 50 0
7 -42 94 0
4 -41 -94 0
5 -41 -86 0
4 -41 -65 0
2 -41 -60 0
6 -41 -43 0
7 -41 51 0
4 -41 53 0
3 -41 61 0
2 -41 78 0
3 -41 97 0
6 -41 110 0
9 -41 118 0
10 -40 51 0
2 -40 68 0
7 -40 69 0
5 -40 94 0
4 -40 99 0
10 -40 120 0
2 -39 81 0
6 -39 85 0
7 -39 94 0
1 -39 115 0
9 -38 -120 0
8 -38 -99 0
5 -38 -94 0
3 -38 -93 0
8 -38 -88 0
6 -38 -85 0
3 -38 -82 0
9 -38 -77 0
3 -38 -67 0
5 -38 -59 0
3 -38 40 0
6 -38 94 0
6 -38 101 0
8 -38 112 0
3 -37 -118 0
9 -37 -94 0
10 -37 -81 0
3 -37 -56 0
2 -37 -40 0
5 -37 52 0
2 -37 92 0
2 -37 107 0
6 -36 -93 0
8 -36 -76 0
6 -36 -73 0
9 -36 -72 0
8 -36 -55 0
7 -36 -54 0
5 -36 -49 0
5 -36 -48 0
7 -36 55 0
4 -36 59 0
3 -36 61 0
2 -36 70 0
6 -36 72 0
10 -36 120 0
7 -35 -110 0
8 -35 -95 0
8 -35 -80 0
9 -35 -60 0
3 -35 43 0
2 -35 63 0
5 -35 72 0
8 -35 100 0
9 -35 112 0
7 -34 -110 0
7 -34 -106 0
8 -34 -71 0
9 -34 -68 0
8 -34 71 0
3 -34 76 0
1 -34 95 0
9 -34 102 0
8 -34 117 0
9 -34 120 0
5 -33 -112 0
7 -33 -107 0
7 -33 -74 0
2 -33 -45 0
2 -33 45 0
2 -33 54 0
7 -33 74 0
5 -33 88 0
4 -33 98 0
8 -33 119 0
1 -33 120 0
3 -32 -119 0
5 -32 -118 0
8 -32 -82 0
2 -32 -74 0
4 -32 -53 0
10 -32 -51 0
3 -32 -45 0
7 -32 -41 0
8 -32 35 0
1 -32 37 0
4 -32 39 0
5 -32 40 0
8 -32 52 0
3 -32 74 0
3 -32 88 0
2 -32 101 0
4 -32 107 0
3 -31 -116 0
9 -31 -103 0
2 -31 -89 0
7 -31 -38 0
6 -31 37 0
8 -31 52 0
8 -31 54 0
7 -31 68 0
9 -31 89 0
5 -31 104 0
2 -31 105 0
3 -31 117 0
3 -30 -98 0
2 -30 -72 0
5 -30 -55 0
7 -30 -54 0
9 -30 -42 0
6 -30 -31 0
1 -30 32 0
9 -30 36 0
7 -30 101 0
8 -30 110 0
7 -29 -112 0
8 -29 -111 0
2 -29 -110 0
2 -29 -91 0
6 -29 -73 0
4 -29 -54 0
4 -29 -52 0
7 -29 36 0
6 -29 51 0
6 -29 75 0
6 -29 111 0
8 -28 -81 0
3 -28 -48 0
2 -28 -45 0
6 -28 38 0
9 -28 49 0
8 -28 83 0
5 -28 96 0
4 -27 -111 0
10 -27 -28 0
7 -27 43 0
7 -27 73 0
2 -27 74 0
2 -27 109 0
4 -26 -114 0
1 -26 -99 0
7 -26 -94 0
4 -26 -65 0
10 -26 -53 0
5 -26 -47 0
2 -26 -27 0
6 -26 60 0
2 -26 68 0
3 -26 93 0
7 -26 112 0
7 -26 113 0
6 -26 118 0
1 -25 -88 0
4 -25 -49 0
2 -25 -47 0
6 -25 42 0
9 -25 51 0
9 -25 104 0
8 -24 -119 0
1 -24 -87 0
5 -24 -69 0
7 -24 -67 0
8 -24 -53 0
10 -24 -44 0
1 -24 -37 0
8 -24 32 0
7 -24 37 0
7 -24 54 0
9 -24 55 0
8 -24 70 0
1 -24 80 0
10 -24 89 0
5 -24 90 0
5 -24 103 0
9 -23 -119 0
9 -23 -116 0
6 -23 -98 0
5 -23 -97 0
10 -23 -68 0
8 -23 -65 0
2 -23 -57 0
7 -23 -49 0
4 -23 -29 0
3 -23 36 0
2 -23 65 0
5 -23 74 0
8 -23 75 0
10 -23 77 0
4 -23 79 0
5 -23 117 0
10 -22 -116 0
8 -22 -96 0
2 -22 -50 0
8 -22 -39 0
8 -22 -37 0
3 -22 -36 0
6 -22 -32 0
5 -22 -30 0
9 -22 26 0
5 -22 37 0
3 -22 62 0
9 -22 64 0
5 -22 68 0
7 -22 85 0
4 -22 93 0
4 -22 118 0
6 -22 120 0
8 -21 -120 0
9 -21 -117 0
6 -21 -112 0
6 -21 -102 0
1 -21 -89 0
3 -21 -86 0
9 -21 -80 0
3 -21 -49 0
3 -21 -33 0
4 -21 -24 0
9 -21 29 0
3 -21 44 0
7 -21 73 0
5 -21 78 0
2 -21 92 0
6 -21 108 0
6 -20 -104 0
9 -20 -76 0
4 -20 -46 0
8 -20 -41 0
6 -20 -36 0
7 -20 -35 0
7 -20 27 0
10 -20 61 0
9 -20 74 0
6 -20 99 0
5 -20 109 0
6 -20 111 0
8 -19 -118 0
8 -19 -104 0
2 -19 -93 0
7 -19 -90 0
7 -19 -87 0
6 -19 -84 0
3 -19 -74 0
7 -19 21 0
8 -19 29 0
2 -19 37 0
9 -19 46 0
1 -19 53 0
5 -19 74 0
8 -19 95 0
3 -19 96 0
2 -19 116 0
3 -18 -118 0
5 -18 -96 0
6 -18 -88 0
8 -18 -70 0
4 -18 -59 0
9 -18 20 0
7 -18 29 0
9 -18 35 0
6 -18 58 0
4 -18 67 0
9 -18 71 0
6 -18 89 0
9 -18 116 0
4 -18 120 0
2 -17 -110 0
7 -17 -96 0
2 -17 -40 0
2 -17 -28 0
4 -17 -20 0
8 -17 32 0
7 -17 49 0
6 -17 109 0
5 -16 -85 0
5 -16 -75 0
7 -16 -71 0
4 -16 -50 0
6 -16 -36 0
1 -16 19 0
2 -16 37 0
8 -16 38 0
2 -16 51 0
4 -16 55 0
2 -16 64 0
7 -16 96 0
2 -16 106 0
5 -15 -114 0
6 -15 -113 0
8 -15 -74 0
4 -15 -67 0
3 -15 -57 0
2 -15 -51 0
3 -15 -24 0
7 -15 17 0
9 -15 30 0
6 -15 56 0
8 -15 63 0
6 -15 66 0
6 -15 118 0
9 -14 -80 0
9 -14 -69 0
4 -14 -15 0
6 -14 19 0
5 -14 21 0
8 -14 22 0
2 -14 37 0
1 -14 102 0
2 -13 -119 0
6 -13 -118 0
2 -13 -108 0
3 -13 -98 0
4 -13 -70 0
3 -13 -69 0
6 -13 -63 0
5 -13 -19 0
9 -13 18 0
7 -13 24 0
10 -13 36 0
5 -13 53 0
5 -13 79 0
4 -13 98 0
7 -13 100 0
6 -13 104 0
6 -12 -120 0
4 -12 -81 0
5 -12 -53 0
1 -12 85 0
2 -11 -107 0
2 -11 -98 0
7 -11 -94 0
10 -11 -61 0
10 -11 -40 0
10 -11 -23 0
6 -11 -21 0
5 -11 48 0
8 -11 98 0
7 -11 102 0
5 -10 -103 0
9 -10 -100 0
3 -10 -94 0
6 -10 -84 0
2 -10 -82 0
6 -10 -34 0
7 -10 -16 0
7 -10 12 0
10 -10 54 0
6 -10 79 0
4 -9 -108 0
9 -9 -87 0
1 -9 -85 0
8 -9 -68 0
3 -9 -32 0
7 -9 -18 0
4 -9 -16 0
7 -9 -13 0
9 -9 19 0
9 -9 32 0
8 -9 63 0
1 -9 72 0
9 -9 78 0
4 -9 117 0
10 -8 -117 0
9 -8 -113 0
4 -8 -90 0
6 -8 -75 0
4 -8 -72 0
2 -8 -40 0
3 -8 -34 0
8 -8 -30 0
1 -8 -24 0
5 -8 -14 0
4 -8 -11 0
2 -8 43 0
9 -8 54 0
2 -8 58 0
8 -7 -110 0
9 -7 -78 0
7 -7 -73 0
2 -7 -48 0
8 -7 -24 0
7 -7 -20 0
9 -7 35 0
10 -7 47 0
4 -7 61 0
4 -7 63 0
7 -7 80 0
3 -7 92 0
3 -7 98 0
5 -7 112 0
3 -6 -69 0
2 -6 -66 0
8 -6 -40 0
3 -6 10 0
1 -6 75 0
2 -6 79 0
8 -6 88 0
4 -6 103 0
4 -5 -119 0
10 -5 -78 0
3 -5 -39 0
4 -5 -38 0
4 -5 -12 0
6 -5 38 0
5 -5 51 0
4 -5 62 0
7 -5 69 0
3 -5 113 0
3 -4 -117 0
3 -4 -94 0
4 -4 -23 0
10 -4 31 0
9 -4 43 0
3 -4 59 0
9 -4 68 0
3 -4 85 0
6 -4 93 0
7 -4 94 0
5 -3 -114 0
8 -3 -95 0
2 -3 -84 0
7 -3 -58 0
9 -3 -35 0
9 -3 -30 0
9 -3 -28 0
9 -3 -14 0
2 -3 -11 0
7 -3 9 0
3 -3 41 0
4 -3 72 0
7 -3 78 0
5 -3 82 0
8 -3 99 0
1 -3 118 0
1 -3 119 0
3 -2 -113 0
4 -2 -112 0
7 -2 -99 0
5 -2 -76 0
5 -2 -60 0
9 -2 -59 0
8 -2 -30 0
5 -2 -29 0
8 -2 21 0
1 -2 42 0
4 -2 58 0
1 -2 67 0
7 -2 85 0
1 -2 106 0
5 -1 -113 0
4 -1 -80 0
2 -1 -69 0
2 -1 -62 0
3 -1 -53 0
1 -1 -40 0
10 -1 -37 0
2 -1 -31 0
2 -1 -21 0
7 -1 -17 0
4 -1 31 0
5 -1 37 0
3 -1 45 0
8 -1 65 0
3 -1 77 0
3 -1 82 0
8 -1 84 0
5 1 -117 0
6 1 -109 0
5 1 -100 0
9 1 -85 0
1 1 -79 0
4 1 -77 0
7 1 -37 0
5 1 -19 0
3 1 4 0
7 1 29 0
8 1 38 0
3 1 60 0
4 1 62 0
9 1 87 0
7 1 89 0
7 1 93 0
10 2 -109 0
8 2 -99 0
9 2 -90 0
10 2 -71 0
8 2 -35 0
1 2 -27 0
2 2 -12 0
5 2 33 0
5 2 70 0
6 2 84 0
7 2 109 0
3 2 112 0
8 2 114 0
10 3 -7 0
2 3 33 0
3 3 46 0
6 3 70 0
6 3 90 0
2 3 117 0
6 4 -119 0
9 4 -116 0
8 4 -80 0
1 4 -61 0
1 4 -58 0
5 4 -45 0
9 4 -32 0
3 4 -17 0
8 4 -14 0
7 4 -9 0
10 4 17 0
5 4 45 0
7 4 48 0
8 4 55 0
5 4 72 0
7 4 97 0
6 4 116 0
5 4 120 0
8 5 -110 0
1 5 -84 0
9 5 -83 0
4 5 -77 0
7 5 -60 0
2 5 -52 0
2 5 -34 0
7 5 -33 0
3 5 -20 0
4 5 -16 0
3 5 11 0
7 5 28 0
5 5 75 0
8 5 88 0
6 5 103 0
2 5 113 0
8 6 -120 0
6 6 -119 0
6 6 -90 0
7 6 -71 0
9 6 -65 0
5 6 -49 0
4 6 -14 0
8 6 13 0
9 6 16 0
1 6 33 0
6 6 76 0
4 6 103 0
7 6 106 0
2 6 117 0
8 7 -120 0
5 7 -85 0
2 7 -63 0
7 7 -27 0
8 7 -18 0
9 7 94 0
8 7 112 0
10 8 -104 0
6 8 -72 0
9 8 -48 0
4 8 -15 0
8 8 44 0
7 8 47 0
7 8 53 0
6 8 55 0
2 8 79 0
9 9 -101 0
4 9 -86 0
8 9 -63 0
5 9 -49 0
1 9 -42 0
6 9 -37 0
9 9 -11 0
5 10 -113 0
4 10 -112 0
8 10 -101 0
5 10 -87 0
10 10 -27 0
2 10 36 0
3 10 117 0
2 10 119 0
8 11 -107 0
7 11 -90 0
3 11 -46 0
5 11 -39 0
5 11 19 0
2 11 34 0
3 11 50 0
5 11 59 0
7 11 106 0
2 12 -112 0
7 12 -105 0
5 12 -74 0
8 12 -57 0
5 12 -13 0
1 12 48 0
9 12 69 0
3 12 76 0
4 12 86 0
7 12 89 0
8 12 113 0
5 13 -102 0
3 13 -68 0
6 13 -63 0
8 13 30 0
7 13 51 0
4 13 77 0
3 13 93 0
6 13 115 0
5 14 -99 0
5 14 -94 0
7 14 -86 0
3 14 -52 0
2 14 -26 0
10 14 -21 0
7 14 50 0
6 14 69 0
2 14 91 0
9 15 -117 0
10 15 -114 0
8 15 -106 0
2 15 -96 0
7 15 -93 0
3 15 -63 0
9 15 -57 0
2 15 -47 0
3 15 -39 0
9 15 -33 0
5 15 63 0
6 15 77 0
6 15 81 0
2 15 89 0
10 15 95 0
8 15 104 0
8 16 -113 0
8 16 -103 0
5 16 49 0
2 16 102 0
2 17 -117 0
1 17 -101 0
6 17 -98 0
5 17 -96 0
8 17 -82 0
8 17 -64 0
6 17 -36 0
7 17 25 0
5 17 34 0
2 17 55 0
8 17 67 0
5 17 74 0
2 17 77 0
6 17 101 0
6 17 120 0
9 18 -108 0
8 18 -104 0
5 18 -101 0
1 18 -81 0
1 18 -62 0
3 18 -53 0
5 18 26 0
6 18 58 0
8 18 60 0
6 18 72 0
6 19 -110 0
6 19 25 0
4 19 52 0
4 19 57 0
1 19 70 0
5 19 84 0
5 20 -73 0
2 20 -64 0
10 20 -61 0
9 20 -54 0
9 20 -44 0
8 20 -28 0
6 20 33 0
6 20 106 0
3 20 111 0
7 20 116 0
4 21 -47 0
7 21 -35 0
9 21 32 0
9 21 86 0
3 22 -107 0
8 22 -94 0
7 22 -80 0
7 22 -74 0
8 22 -69 0
7 22 -62 0
10 22 31 0
2 22 38 0
4 22 105 0
8 22 107 0
7 23 -114 0
9 23 -75 0
4 23 -67 0
1 23 -63 0
3 23 -35 0
5 23 -31 0
5 23 45 0
7 23 47 0
5 23 52 0
5 24 -117 0
7 24 -70 0
4 24 -68 0
3 24 -64 0
3 24 -61 0
9 24 -41 0
5 24 30 0
9 24 59 0
3 24 75 0
3 25 -82 0
8 25 -54 0
2 25 -41 0
5 25 -29 0
5 25 -28 0
8 25 41 0
2 25 44 0
3 25 45 0
6 25 49 0
2 25 58 0
4 25 78 0
8 25 79 0
9 25 82 0
2 25 94 0
7 25 101 0
3 25 106 0
2 26 -97 0
10 26 -63 0
6 26 -49 0
7 26 -35 0
7 26 75 0
2 27 -120 0
2 27 -101 0
4 27 -99 0
5 27 -83 0
4 27 -69 0
5 27 -64 0
3 27 -38 0
8 27 -36 0
4 27 -34 0
5 27 35 0
1 27 56 0
2 27 63 0
7 27 82 0
5 27 83 0
6 27 84 0
5 28 -113 0
6 28 -111 0
9 28 -95 0
10 28 -84 0
7 28 -67 0
3 28 -49 0
8 28 36 0
6 28 40 0
4 28 45 0
5 28 60 0
8 28 98 0
5 28 104 0
5 28 108 0
4 29 -104 0
2 29 -102 0
2 29 -65 0
5 29 38 0
3 29 44 0
4 29 52 0
8 29 71 0
6 29 89 0
9 29 109 0
2 29 120 0
4 30 -119 0
3 30 -101 0
6 30 -85 0
4 30 -76 0
4 30 -50 0
3 30 -45 0
8 30 -42 0
10 30 37 0
7 30 43 0
5 30 51 0
8 30 53 0
6 30 54 0
2 30 58 0
1 30 71 0
4 30 85 0
6 31 -68 0
4 31 -52 0
9 31 -42 0
4 31 -39 0
8 31 46 0
3 31 76 0
7 31 79 0
9 31 93 0
4 31 111 0
2 32 -114 0
2 32 -38 0
8 32 37 0
9 32 43 0
7 32 51 0
6 32 60 0
10 32 63 0
1 32 94 0
9 32 108 0
6 32 119 0
4 33 -96 0
3 33 -75 0
8 33 -61 0
3 33 61 0
2 33 69 0
4 33 73 0
6 33 78 0
10 33 88 0
10 33 104 0
7 34 -118 0
10 34 -103 0
4 34 -102 0
4 34 -65 0
4 34 -44 0
3 34 -35 0
7 34 56 0
3 34 75 0
5 34 81 0
4 34 103 0
2 34 112 0
9 34 119 0
5 35 52 0
3 35 63 0
6 35 71 0
4 35 90 0
9 35 97 0
3 35 113 0
4 35 116 0
9 36 -116 0
1 36 -107 0
9 36 -83 0
3 36 -77 0
3 36 -76 0
7 36 -68 0
5 36 -62 0
4 36 -52 0
1 36 68 0
2 36 69 0
4 36 101 0
1 37 -41 0
8 37 49 0
4 37 58 0
4 37 115 0
1 37 118 0
7 38 -83 0
6 38 -81 0
7 38 -63 0
9 38 -47 0
2 38 83 0
1 39 -114 0
10 39 -98 0
9 39 -67 0
5 39 -61 0
3 39 -55 0
5 39 -42 0
8 39 49 0
2 39 58 0
7 39 60 0
2 39 65 0
10 39 73 0
7 39 74 0
1 40 -116 0
3 40 -72 0
9 40 -45 0
7 40 -41 0
7 40 63 0
4 41 -120 0
7 41 -111 0
8 41 -110 0
7 41 -102 0
7 41 -83 0
6 41 -81 0
10 41 -66 0
2 41 -65 0
6 41 -59 0
7 41 -56 0
7 41 -52 0
3 41 74 0
6 41 79 0
8 41 91 0
3 41 102 0
5 42 -117 0
7 42 -112 0
7 42 -98 0
7 42 -95 0
3 42 -63 0
5 42 65 0
8 42 76 0
9 42 94 0
6 42 95 0
8 43 -118 0
6 43 -100 0
6 43 -89 0
1 43 68 0
5 43 115 0
3 44 -119 0
8 44 -85 0
7 44 -47 0
9 44 48 0
6 44 51 0
4 44 65 0
6 44 80 0
1 44 94 0
4 44 97 0
6 45 -98 0
7 45 -66 0
10 45 -62 0
4 45 54 0
9 45 72 0
5 45 83 0
1 45 89 0
2 45 114 0
10 46 -114 0
8 46 -78 0
8 46 -72 0
7 46 -68 0
10 46 -66 0
3 46 64 0
5 46 65 0
8 46 69 0
8 46 73 0
3 46 110 0
4 47 -118 0
4 47 -111 0
3 47 -105 0
8 47 -90 0
6 47 -88 0
10 47 -66 0
6 47 -59 0
4 47 -53 0
5 47 -52 0
9 47 71 0
9 47 77 0
6 47 83 0
3 47 87 0
6 47 88 0
2 47 95 0
2 47 117 0
8 48 -119 0
1 48 -113 0
7 48 -95 0
9 48 -80 0
2 48 -59 0
7 48 -50 0
6 48 49 0
8 48 91 0
4 49 -106 0
6 49 -95 0
1 49 -83 0
8 49 -59 0
4 49 -54 0
8 49 100 0
10 49 110 0
8 50 -94 0
2 50 -74 0
3 50 -69 0
6 50 -54 0
6 50 53 0
2 50 59 0
1 50 104 0
10 50 111 0
7 51 -116 0
9 51 -62 0
9 51 -61 0
3 51 70 0
2 51 90 0
4 51 98 0
4 51 115 0
3 52 -114 0
3 52 -85 0
4 52 -79 0
9 52 -69 0
1 52 58 0
5 52 108 0
6 53 -119 0
7 53 -114 0
3 53 -108 0
9 53 -92 0
3 53 -78 0
3 53 -60 0
7 53 -59 0
6 53 -55 0
1 53 60 0
6 53 96 0
4 53 107 0
2 54 -98 0
8 54 -86 0
9 54 -56 0
7 54 63 0
9 54 75 0
9 54 98 0
7 54 120 0
6 55 -118 0
8 55 -101 0
5 55 -82 0
7 55 -72 0
9 55 -66 0
9 55 -63 0
2 55 68 0
3 55 71 0
2 55 84 0
5 55 96 0
2 55 113 0
2 56 -90 0
9 56 85 0
7 56 91 0
8 56 113 0
2 57 -114 0
6 57 -112 0
9 57 -101 0
4 57 58 0
2 57 77 0
6 57 82 0
5 57 89 0
7 57 90 0
8 57 107 0
6 58 -103 0
5 58 -61 0
7 58 68 0
3 58 85 0
4 59 -75 0
6 60 -112 0
9 60 -106 0
9 60 -100 0
4 60 -87 0
4 60 -70 0
6 60 -69 0
3 60 79 0
3 60 82 0
7 60 120 0
5 61 -99 0
4 61 -98 0
2 61 -81 0
6 61 102 0
4 61 108 0
9 62 -120 0
3 62 -116 0
2 62 -115 0
1 62 -90 0
8 62 84 0
1 63 86 0
5 63 97 0
9 63 100 0
6 64 -117 0
8 64 -107 0
6 64 -97 0
4 64 -80 0
4 64 -73 0
1 64 68 0
1 64 72 0
6 64 84 0
4 64 89 0
6 64 95 0
5 65 -116 0
3 65 -98 0
9 65 -96 0
8 65 -77 0
9 65 68 0
2 66 -118 0
10 66 -114 0
6 66 -101 0
6 66 -90 0
3 66 -87 0
7 66 116 0
2 67 -113 0
7 67 -78 0
6 67 -76 0
4 67 -75 0
8 67 118 0
7 68 -91 0
1 68 -85 0
8 68 -84 0
1 68 -74 0
9 68 94 0
4 69 -99 0
9 69 -95 0
5 69 -72 0
7 69 -70 0
3 70 -84 0
6 70 74 0
7 71 -100 0
8 71 -83 0
9 71 79 0
3 71 97 0
2 72 -97 0
2 72 82 0
2 72 85 0
9 72 103 0
1 72 112 0
3 72 114 0
9 72 117 0
6 73 -109 0
8 73 -95 0
2 73 -77 0
3 74 -106 0
9 74 -100 0
8 74 -99 0
8 74 -93 0
3 74 -85 0
5 74 -83 0
4 74 -78 0
3 74 95 0
3 74 101 0
5 74 114 0
2 75 -114 0
6 75 -113 0
3 75 83 0
6 75 107 0
3 75 119 0
5 76 -95 0
2 76 -93 0
9 76 80 0
3 77 -120 0
10 77 -98 0
2 77 -95 0
5 77 -90 0
2 77 78 0
2 77 98 0
4 77 109 0
3 78 -117 0
5 78 -108 0
3 78 82 0
8 78 111 0
3 78 116 0
4 79 100 0
9 80 -101 0
2 80 102 0
2 80 109 0
7 81 83 0
4 81 112 0
6 82 -112 0
1 82 -105 0
6 82 105 0
9 82 111 0
5 83 -111 0
7 83 -104 0
5 83 89 0
7 83 91 0
3 83 106 0
6 83 116 0
2 84 -109 0
4 84 98 0
5 84 111 0
4 84 113 0
4 84 120 0
6 85 -112 0
8 85 -94 0
6 85 -88 0
7 86 -113 0
2 86 -109 0
7 86 -108 0
2 86 89 0
3 86 90 0
5 86 106 0
4 87 -92 0
7 87 96 0
4 87 97 0
5 87 111 0
7 87 119 0
10 88 -117 0
8 88 -100 0
4 88 92 0
10 88 93 0
4 88 117 0
2 89 92 0
5 89 95 0
1 89 103 0
6 89 107 0
2 89 116 0
4 90 -112 0
2 90 -105 0
3 90 91 0
7 90 92 0
6 90 110 0
6 90 116 0
1 91 -115 0
2 91 -108 0
4 91 102 0
6 91 108 0
8 91 118 0
5 91 119 0
3 92 -119 0
9 92 -117 0
7 92 -104 0
7 92 98 0
2 92 108 0
4 92 119 0
9 93 -116 0
6 93 -102 0
1 93 115 0
9 94 -101 0
4 94 110 0
4 94 111 0
9 95 -104 0
8 95 -98 0
6 95 102 0
4 95 116 0
8 95 118 0
1 96 -117 0
4 96 -111 0
2 96 111 0
3 96 112 0
6 97 -107 0
8 97 -105 0
8 97 116 0
2 98 -109 0
9 98 115 0
9 99 -113 0
5 99 -111 0
5 99 100 0
7 99 104 0
9 99 118 0
7 100 -118 0
6 100 -109 0
7 100 115 0
3 101 113 0
7 101 119 0
10 102 -120 0
3 102 -110 0
4 102 103 0
1 102 120 0
2 103 -105 0
7 103 118 0
4 104 105 0
10 105 -118 0
5 105 -110 0
9 105 110 0
4 105 111 0
3 106 -119 0
9 106 -110 0
7 106 107 0
4 107 -116 0
2 107 118 0
3 110 -116 0
2 110 -113 0
9 111 -120 0
4 111 -118 0
10 112 118 0
8 112 120 0
8 113 -115 0
4 113 118 0
5 113 120 0
8 115 119 0
